// Objective Function
max: 150 u1 + .2 u2;

/* Constraints */
150 u1 + .2 u2 - 14000 v1 - 3500 v2 <= 0;
400 u1 + .7 u2 - 14000 v1 - 21000 v2 <= 0;
320 u1 + 1.2 u2 - 42000 v1 - 10500 v2 <= 0;
520 u1 + 2.0 u2 - 28000 v1 - 42000 v2 <= 0;
350 u1 + 1.2 u2 - 19000 v1 - 25000 v2 <= 0;
320 u1 + .7 u2 - 14000 v1 - 15000 v2 <= 0;
+ 14000 v1 + 3500 v2 = 1;
